\ This file was automatically generated by Zimpl
\ var w1 <= 0;
\ var w2 >= 0;
\ minimize Z :      4*w1 + 3*w2;
\ subto r1:     1*w1 + 1*w2 >= 3;
\ subto r2:     -2*w1 + 1*w2 >= 4;
\Problem name: pd
Minimize
 Z:  +4 w1 +3 w2
Subject to
 r1_1:
  + w2 + w1 >= 3
 r2_1:
  + w2 -2 w1 >= 4
Bounds
 w1 = 0
 0 <= w2 <= +inf
End
